40804
177,230,237,249,382,412,427,446,523,560,599,637,763,786,792,822,825,1143,1394,1400,1451,1457,1475,1611,1716,1831,1838,1904,1905,2116,2203,2301,2321,2326,2377,2447,2730,2832,2896,2913,2940,2966,3018,3089,3137,3180,3212,3274,3279,3330,3380,3400,3412,3455,3477,3562,3748,3754,3763,3872,3913,3948,3969,4131,4226,4293,4403,4445,4463,4512,4536,4565,4630,4648,4700,4728,4787,4860
